
--- Job EmployeeScheduling.gms Start 12/03/23 15:55:04 45.2.0 e4d2ee31 WEX-WEI x86 64bit/MS Windows
--- Applying:
    C:\GAMS\45\gmsprmNT.txt
--- GAMS Parameters defined
    Input "C:\Users\rajes\Desktop\CL643 Project\EmployeeScheduling.gms"
    PageSize 0
    ScrDir "C:\Users\rajes\Desktop\CL643 Project\225a\"
    SysDir C:\GAMS\45\
    LogOption 3
    ErrMsg 1
    ErrorLog 99
    IDE 1
    LstTitleLeftAligned 1
Licensee: GAMS Demo, for EULA and demo limitations see   G230930/0001CB-GEN
          https://www.gams.com/latest/docs/UG%5FLicense.html         DC0000
          C:\GAMS\45\gamslice.txt
          Demo license for demonstration and instructional purposes only
Processor information: 1 socket(s), 4 core(s), and 8 thread(s) available
GAMS 45.2.0   Copyright (C) 1987-2023 GAMS Development. All rights reserved
--- Starting compilation
--- EmployeeScheduling.gms(77) 3 Mb
--- Starting execution: elapsed 0:00:00.014
--- EmployeeScheduling.gms(76) 4 Mb
--- Generating MIP model EmployeeScheduling
--- EmployeeScheduling.gms(77) 4 Mb
---   325 rows  169 columns  1,217 non-zeroes
---   168 discrete-columns
--- Range statistics (absolute non-zero finite values)
--- RHS       [min, max] : [ 1.000E+00, 5.000E+00] - Zero values observed as well
--- Bound     [min, max] : [ 1.000E+00, 1.000E+00] - Zero values observed as well
--- Matrix    [min, max] : [ 1.000E+00, 3.620E+02]
--- Executing CPLEX (Solvelink=2): elapsed 0:00:00.030

IBM ILOG CPLEX   45.2.0 e4d2ee31 Oct 30, 2023          WEI x86 64bit/MS Window

*** This solver runs with a demo license. No commercial use.

*** Error Cannot open parameter file "C:\Users\rajes\Desktop\CL643 Project\cplex.opt"
*** Error Error code = 2; No such file or directory

--- GMO setup time: 0.00s
--- Space for names approximately 0.01 Mb
--- Use option 'names no' to turn use of names off
--- GMO memory 0.56 Mb (peak 0.56 Mb)
--- Dictionary memory 0.00 Mb
--- Cplex 22.1.1.0 link memory 0.01 Mb (peak 0.03 Mb)
--- Starting Cplex

Version identifier: 22.1.1.0 | 2022-11-27 | 9160aff4d
CPXPARAM_Advance                                 0
CPXPARAM_Threads                                 1
CPXPARAM_MIP_Display                             4
CPXPARAM_MIP_Pool_Capacity                       0
CPXPARAM_MIP_Tolerances_AbsMIPGap                0
Generic callback                                 0x50
Found incumbent of value 13350.000000 after 0.00 sec. (0.04 ticks)
Tried aggregator 1 time.
MIP Presolve eliminated 128 rows and 1 columns.
Reduced MIP has 196 rows, 168 columns, and 920 nonzeros.
Reduced MIP has 168 binaries, 0 generals, 0 SOSs, and 0 indicators.
Presolve time = 0.00 sec. (0.58 ticks)
Probing time = 0.00 sec. (0.13 ticks)
Tried aggregator 1 time.
Detecting symmetries...
Reduced MIP has 196 rows, 168 columns, and 920 nonzeros.
Reduced MIP has 168 binaries, 0 generals, 0 SOSs, and 0 indicators.
Presolve time = 0.00 sec. (0.93 ticks)
Probing time = 0.00 sec. (0.13 ticks)
Clique table members: 152.
MIP emphasis: balance optimality and feasibility.
MIP search method: dynamic search.
Parallel mode: none, using 1 thread.
Tried aggregator 1 time.
No LP presolve or aggregator reductions.
Presolve time = 0.00 sec. (0.10 ticks)

Iteration log . . .
Iteration:     1   Dual objective     =          1500.000000
Iteration:    62   Dual objective     =         10816.000000
Iteration:   124   Dual objective     =         10816.000000
Root relaxation solution time = 0.00 sec. (0.93 ticks)

        Nodes                                         Cuts/
   Node  Left     Objective  IInf  Best Integer    Best Bound    ItCnt     Gap

*     0+    0                        13350.0000        0.0000           100.00%
Found incumbent of value 13350.000000 after 0.02 sec. (3.12 ticks)
*     0     0      integral     0    10816.0000    10816.0000      133    0.00%
Elapsed time = 0.02 sec. (3.15 ticks, tree = 0.00 MB)
Found incumbent of value 10816.000000 after 0.02 sec. (3.15 ticks)

Root node processing (before b&c):
  Real time             =    0.02 sec. (3.15 ticks)
Sequential b&c:
  Real time             =    0.00 sec. (0.00 ticks)
                          ------------
Total (root+branch&cut) =    0.02 sec. (3.15 ticks)

--- MIP status (101): integer optimal solution.
--- Cplex Time: 0.02sec (det. 3.15 ticks)

--- Returning a primal only solution to GAMS (marginals all set to NA).
--- Fixing integer variables and solving final LP...

Version identifier: 22.1.1.0 | 2022-11-27 | 9160aff4d
CPXPARAM_Advance                                 2
CPXPARAM_Threads                                 1
CPXPARAM_MIP_Display                             4
CPXPARAM_MIP_Pool_Capacity                       0
CPXPARAM_MIP_Tolerances_AbsMIPGap                0
Tried aggregator 1 time.
LP Presolve eliminated 324 rows and 169 columns.
All rows and columns eliminated.
Presolve time = 0.00 sec. (0.13 ticks)

--- Fixed MIP status (1): optimal.
--- Cplex Time: 0.00sec (det. 0.22 ticks)


Proven optimal solution
MIP Solution:        10816.000000    (133 iterations, 0 nodes)
Final Solve:         10816.000000    (0 iterations)

Best possible:       10816.000000
Absolute gap:            0.000000
Relative gap:            0.000000

--- Reading solution for model EmployeeScheduling
*** Status: Normal completion
--- Job EmployeeScheduling.gms Stop 12/03/23 15:55:04 elapsed 0:00:00.184
